Route #1: 40 52 131 114 127 125 122 100
Route #2: 83 76 17 19 38 50 74 78
Route #3: 11 101 89 113 25 59 18 73 39
Route #4: 80 12 85 57 119 29 92 31
Route #5: 128 115 82 133 124 33 86 3 130
Route #6: 109 87 26 35 54 110 123 56 132
Route #7: 69 1 61 71 49 117 64 48 112
Route #8: 95 60 58 34 41 105 116 129
Route #9: 90 108 6 97 5 77 121 7 68 30 8 107 84 81 15 63 13 96
Route #10: 91 14 2 9 47 16 51 118
Route #11: 106 46 99 104 111 36 43 120 79
Route #12: 66 53 23 98 44 70 4 27 22 67 55 126 20 75 28 65 42 93 94 102 45 21
Route #13: 32 62 24 37 88 10 103 72
Cost 10933.000000